c Sudoku solution
p cnf 729 0
133 0
212 0
226 0
231 0
343 0
357 0
366 0
452 0
494 0
569 0
595 0
627 0
117 0
635 0
654 0
688 0
696 0
672 0
641 0
663 0
619 0
868 0
899 0
923 0
934 0
959 0
971 0
987 0
297 0
793 0
853 0
264 0
428 0
436 0
532 0
837 0
445 0
467 0
577 0
747 0
844 0
189 0
176 0
124 0
249 0
514 0
413 0
521 0
481 0
583 0
479 0
811 0
273 0
285 0
258 0
142 0
198 0
374 0
946 0
716 0
548 0
556 0
784 0
875 0
778 0
886 0
992 0
739 0
918 0
822 0
725 0
762 0
751 0
965 0
315 0
329 0
338 0
155 0
161 0
382 0
391 0
